GLPSOL: GLPK LP/MIP Solver, v4.65
Parameter(s) specified in the command line:
 -m transportation-penalties-B.mod -d transportation-penalties-small.dat --log
 transportation-penalties-B-small.log --xcheck
Reading model section from transportation-penalties-B.mod...
48 lines were read
Reading data section from transportation-penalties-small.dat...
33 lines were read
Checking (line 11)...
Generating Calculating_Demand_Satisfied...
Generating Availability_at_Supply_Points...
Generating Calculating_Exact_Demands...
Generating Total_Costs...
Model has been successfully generated
GLPK Simplex Optimizer, v4.65
17 rows, 42 columns, 108 non-zeros
Preprocessing...
16 rows, 36 columns, 66 non-zeros
Scaling...
 A: min|aij| =  1.000e+00  max|aij| =  1.000e+00  ratio =  1.000e+00
Problem data seem to be well scaled
Constructing initial basis...
Size of triangular part is 16
      0: obj =  -7.500000000e+02 inf =   7.500e+02 (6)
      9: obj =   3.690000000e+03 inf =   0.000e+00 (0)
*    16: obj =   1.450000000e+03 inf =   0.000e+00 (0)
OPTIMAL LP SOLUTION FOUND
glp_exact: 17 rows, 42 columns, 108 non-zeros
GNU MP bignum library is being used
*    16:   objval =                   1450   (0)
*    16:   objval =                   1450   (0)
OPTIMAL SOLUTION FOUND
Time used:   0.0 secs
Memory used: 0.2 Mb (159290 bytes)
Optimal cost: 1450.
Required: D1, Satisfied: 120 (+0)
Required: D2, Satisfied: 40 (-100)
Required: D3, Satisfied: 170 (+0)
Required: D4, Satisfied: 90 (+0)
Required: D5, Satisfied: 0 (-110)
Required: D6, Satisfied: 0 (-120)
From S2 to D1, transport 120 amount for 120 (unit cost: 1).
From S2 to D2, transport 40 amount for 80 (unit cost: 2).
From S2 to D4, transport 90 amount for 90 (unit cost: 1).
From S3 to D3, transport 170 amount for 170 (unit cost: 1).
Model has been successfully processed
